# Cost: 281

# Tail Head Net
33 13 1
53 33 1
73 53 1
93 73 1
113 93 1
133 113 1
153 133 1
173 153 1
193 173 1
213 193 1
233 213 1
253 233 1
273 253 1
273 293 1
274 273 1
275 274 1
276 275 1
277 276 1
278 277 1
279 278 1
280 279 1
293 313 1
313 333 1
333 353 1
353 373 1
373 393 1
391 390 1
392 391 1
393 392 1
393 394 1
394 395 1
395 396 1
396 397 1
16 17 2
16 36 2
17 18 2
36 56 2
56 76 2
76 96 2
96 116 2
116 136 2
136 156 2
156 176 2
156 556 2
176 196 2
196 216 2
216 217 2
217 218 2
218 219 2
219 220 2
541 141 2
542 541 2
543 542 2
544 543 2
545 544 2
546 545 2
547 546 2
548 547 2
549 548 2
550 549 2
551 550 2
552 551 2
553 552 2
554 553 2
555 554 2
556 555 2
79 80 3
98 99 3
99 79 3
118 98 3
138 118 3
161 561 3
181 161 3
201 181 3
221 201 3
241 221 3
261 241 3
281 261 3
301 281 3
321 301 3
341 321 3
538 138 3
558 538 3
561 562 3
562 563 3
563 564 3
564 565 3
565 566 3
566 567 3
567 568 3
568 569 3
569 570 3
570 571 3
571 572 3
572 573 3
573 574 3
574 575 3
575 576 3
576 577 3
577 578 3
578 558 3
41 21 4
61 41 4
81 61 4
82 81 4
102 82 4
122 102 4
142 122 4
162 142 4
182 162 4
182 582 4
198 199 4
199 200 4
202 182 4
222 202 4
242 222 4
262 242 4
282 262 4
302 282 4
322 302 4
342 322 4
362 342 4
382 362 4
582 583 4
583 584 4
584 585 4
585 586 4
586 587 4
587 588 4
588 589 4
589 590 4
590 591 4
591 592 4
592 593 4
593 594 4
594 595 4
595 596 4
596 597 4
597 598 4
598 198 4
385 384 5
9 29 6
29 49 6
49 69 6
69 89 6
89 109 6
109 110 6
109 129 6
110 111 6
111 511 6
119 120 6
129 149 6
149 169 6
169 189 6
189 209 6
209 229 6
229 249 6
249 269 6
269 289 6
289 309 6
309 329 6
329 349 6
349 369 6
369 389 6
511 512 6
512 513 6
513 514 6
514 515 6
515 516 6
516 517 6
517 518 6
518 519 6
519 119 6
3 23 7
23 43 7
43 44 7
44 45 7
45 46 7
46 66 7
66 67 7
67 87 7
87 107 7
107 108 7
108 128 7
128 148 7
148 168 7
168 188 7
188 208 7
208 228 7
228 248 7
248 268 7
268 288 7
288 308 7
308 328 7
328 348 7
348 368 7
368 388 7
388 788 7
788 789 7
789 790 7
790 791 7
791 792 7
792 793 7
793 794 7
794 795 7
795 796 7
796 797 7
797 798 7
798 398 7
8 7 8
14 414 8
320 340 8
408 8 8
409 408 8
410 409 8
411 410 8
412 411 8
413 412 8
414 413 8
414 415 8
415 416 8
416 417 8
417 418 8
418 419 8
419 439 8
439 459 8
459 479 8
479 480 8
480 500 8
500 520 8
520 540 8
540 560 8
560 580 8
580 600 8
600 620 8
620 640 8
640 660 8
660 680 8
680 700 8
700 720 8
720 320 8
38 438 9
39 38 9
40 39 9
127 147 9
147 167 9
167 187 9
187 207 9
207 227 9
227 247 9
247 267 9
267 287 9
287 307 9
307 327 9
327 347 9
347 367 9
367 387 9
402 2 9
403 402 9
404 403 9
405 404 9
406 405 9
426 406 9
427 426 9
427 447 9
428 427 9
429 428 9
430 429 9
431 430 9
432 431 9
433 432 9
434 433 9
435 434 9
436 435 9
437 436 9
438 437 9
447 467 9
467 487 9
487 507 9
507 527 9
527 127 9
